p cnf 240 794
1 2 3 0
4 5 6 0
7 8 9 0
10 11 12 0
13 14 15 0
16 17 18 0
19 20 21 0
22 23 24 0
25 26 27 0
28 29 30 0
31 32 33 0
34 35 36 0
37 38 39 0
40 41 42 0
43 44 45 0
46 47 48 0
49 50 51 0
52 53 54 0
55 56 57 0
58 59 60 0
61 62 63 0
64 65 66 0
67 68 69 0
70 71 72 0
73 74 75 0
76 77 78 0
79 80 81 0
82 83 84 0
85 86 87 0
88 89 90 0
91 92 93 0
94 95 96 0
97 98 99 0
100 101 102 0
103 104 105 0
106 107 108 0
109 110 111 0
112 113 114 0
115 116 117 0
118 119 120 0
121 122 123 0
124 125 126 0
127 128 129 0
130 131 132 0
133 134 135 0
136 137 138 0
139 140 141 0
142 143 144 0
145 146 147 0
148 149 150 0
151 152 153 0
154 155 156 0
157 158 159 0
160 161 162 0
163 164 165 0
166 167 168 0
169 170 171 0
172 173 174 0
175 176 177 0
178 179 180 0
181 182 183 0
184 185 186 0
187 188 189 0
190 191 192 0
193 194 195 0
196 197 198 0
199 200 201 0
202 203 204 0
205 206 207 0
208 209 210 0
211 212 213 0
214 215 216 0
217 218 219 0
220 221 222 0
223 224 225 0
226 227 228 0
229 230 231 0
232 233 234 0
235 236 237 0
238 239 240 0
-1 -2 0
-1 -3 0
-2 -3 0
-4 -5 0
-4 -6 0
-5 -6 0
-7 -8 0
-7 -9 0
-8 -9 0
-10 -11 0
-10 -12 0
-11 -12 0
-13 -14 0
-13 -15 0
-14 -15 0
-16 -17 0
-16 -18 0
-17 -18 0
-19 -20 0
-19 -21 0
-20 -21 0
-22 -23 0
-22 -24 0
-23 -24 0
-25 -26 0
-25 -27 0
-26 -27 0
-28 -29 0
-28 -30 0
-29 -30 0
-31 -32 0
-31 -33 0
-32 -33 0
-34 -35 0
-34 -36 0
-35 -36 0
-37 -38 0
-37 -39 0
-38 -39 0
-40 -41 0
-40 -42 0
-41 -42 0
-43 -44 0
-43 -45 0
-44 -45 0
-46 -47 0
-46 -48 0
-47 -48 0
-49 -50 0
-49 -51 0
-50 -51 0
-52 -53 0
-52 -54 0
-53 -54 0
-55 -56 0
-55 -57 0
-56 -57 0
-58 -59 0
-58 -60 0
-59 -60 0
-61 -62 0
-61 -63 0
-62 -63 0
-64 -65 0
-64 -66 0
-65 -66 0
-67 -68 0
-67 -69 0
-68 -69 0
-70 -71 0
-70 -72 0
-71 -72 0
-73 -74 0
-73 -75 0
-74 -75 0
-76 -77 0
-76 -78 0
-77 -78 0
-79 -80 0
-79 -81 0
-80 -81 0
-82 -83 0
-82 -84 0
-83 -84 0
-85 -86 0
-85 -87 0
-86 -87 0
-88 -89 0
-88 -90 0
-89 -90 0
-91 -92 0
-91 -93 0
-92 -93 0
-94 -95 0
-94 -96 0
-95 -96 0
-97 -98 0
-97 -99 0
-98 -99 0
-100 -101 0
-100 -102 0
-101 -102 0
-103 -104 0
-103 -105 0
-104 -105 0
-106 -107 0
-106 -108 0
-107 -108 0
-109 -110 0
-109 -111 0
-110 -111 0
-112 -113 0
-112 -114 0
-113 -114 0
-115 -116 0
-115 -117 0
-116 -117 0
-118 -119 0
-118 -120 0
-119 -120 0
-121 -122 0
-121 -123 0
-122 -123 0
-124 -125 0
-124 -126 0
-125 -126 0
-127 -128 0
-127 -129 0
-128 -129 0
-130 -131 0
-130 -132 0
-131 -132 0
-133 -134 0
-133 -135 0
-134 -135 0
-136 -137 0
-136 -138 0
-137 -138 0
-139 -140 0
-139 -141 0
-140 -141 0
-142 -143 0
-142 -144 0
-143 -144 0
-145 -146 0
-145 -147 0
-146 -147 0
-148 -149 0
-148 -150 0
-149 -150 0
-151 -152 0
-151 -153 0
-152 -153 0
-154 -155 0
-154 -156 0
-155 -156 0
-157 -158 0
-157 -159 0
-158 -159 0
-160 -161 0
-160 -162 0
-161 -162 0
-163 -164 0
-163 -165 0
-164 -165 0
-166 -167 0
-166 -168 0
-167 -168 0
-169 -170 0
-169 -171 0
-170 -171 0
-172 -173 0
-172 -174 0
-173 -174 0
-175 -176 0
-175 -177 0
-176 -177 0
-178 -179 0
-178 -180 0
-179 -180 0
-181 -182 0
-181 -183 0
-182 -183 0
-184 -185 0
-184 -186 0
-185 -186 0
-187 -188 0
-187 -189 0
-188 -189 0
-190 -191 0
-190 -192 0
-191 -192 0
-193 -194 0
-193 -195 0
-194 -195 0
-196 -197 0
-196 -198 0
-197 -198 0
-199 -200 0
-199 -201 0
-200 -201 0
-202 -203 0
-202 -204 0
-203 -204 0
-205 -206 0
-205 -207 0
-206 -207 0
-208 -209 0
-208 -210 0
-209 -210 0
-211 -212 0
-211 -213 0
-212 -213 0
-214 -215 0
-214 -216 0
-215 -216 0
-217 -218 0
-217 -219 0
-218 -219 0
-220 -221 0
-220 -222 0
-221 -222 0
-223 -224 0
-223 -225 0
-224 -225 0
-226 -227 0
-226 -228 0
-227 -228 0
-229 -230 0
-229 -231 0
-230 -231 0
-232 -233 0
-232 -234 0
-233 -234 0
-235 -236 0
-235 -237 0
-236 -237 0
-238 -239 0
-238 -240 0
-239 -240 0
-1 -31 0
-1 -100 0
-4 -112 0
-4 -145 0
-7 -43 0
-7 -58 0
-10 -193 0
-13 -79 0
-13 -91 0
-16 -172 0
-16 -214 0
-19 -133 0
-19 -151 0
-22 -82 0
-22 -94 0
-25 -34 0
-25 -121 0
-28 -178 0
-28 -202 0
-31 -1 0
-31 -46 0
-34 -25 0
-34 -115 0
-37 -91 0
-37 -115 0
-40 -55 0
-40 -58 0
-43 -7 0
-43 -52 0
-46 -31 0
-46 -136 0
-49 -61 0
-49 -121 0
-52 -43 0
-52 -115 0
-55 -40 0
-55 -67 0
-58 -7 0
-58 -40 0
-61 -49 0
-61 -139 0
-64 -31 0
-64 -184 0
-67 -55 0
-67 -100 0
-70 -82 0
-70 -190 0
-73 -97 0
-73 -124 0
-76 -133 0
-76 -205 0
-79 -13 0
-79 -157 0
-82 -22 0
-82 -70 0
-85 -124 0
-85 -163 0
-88 -130 0
-88 -169 0
-91 -13 0
-91 -37 0
-94 -22 0
-94 -163 0
-97 -73 0
-97 -100 0
-100 -1 0
-100 -67 0
-103 -124 0
-103 -133 0
-106 -154 0
-106 -160 0
-109 -151 0
-109 -166 0
-112 -4 0
-112 -130 0
-115 -34 0
-115 -37 0
-118 -181 0
-118 -226 0
-121 -25 0
-121 -49 0
-124 -73 0
-124 -85 0
-127 -190 0
-127 -199 0
-130 -88 0
-130 -112 0
-133 -19 0
-133 -76 0
-136 -43 0
-136 -46 0
-139 -1 0
-139 -61 0
-142 -160 0
-142 -187 0
-145 -4 0
-145 -148 0
-148 -145 0
-148 -196 0
-151 -19 0
-151 -109 0
-154 -4 0
-154 -19 0
-157 -52 0
-157 -79 0
-160 -106 0
-160 -142 0
-163 -25 0
-163 -85 0
-166 -109 0
-166 -187 0
-169 -88 0
-169 -130 0
-172 -16 0
-172 -73 0
-175 -79 0
-175 -139 0
-178 -28 0
-178 -61 0
-181 -7 0
-181 -106 0
-184 -64 0
-184 -85 0
-187 -142 0
-187 -166 0
-190 -70 0
-190 -121 0
-193 -10 0
-196 -22 0
-196 -109 0
-199 -46 0
-199 -103 0
-202 -28 0
-202 -94 0
-205 -76 0
-205 -232 0
-208 -13 0
-208 -211 0
-211 -136 0
-211 -202 0
-214 -16 0
-214 -157 0
-217 -16 0
-217 -34 0
-220 -67 0
-220 -148 0
-223 -58 0
-223 -175 0
-226 -40 0
-226 -97 0
-229 -64 0
-229 -82 0
-232 -10 0
-232 -166 0
-235 -49 0
-235 -70 0
-238 -28 0
-238 -76 0
-2 -32 0
-2 -101 0
-5 -113 0
-5 -146 0
-8 -44 0
-8 -59 0
-11 -194 0
-14 -80 0
-14 -92 0
-17 -173 0
-17 -215 0
-20 -134 0
-20 -152 0
-23 -83 0
-23 -95 0
-26 -35 0
-26 -122 0
-29 -179 0
-29 -203 0
-32 -2 0
-32 -47 0
-35 -26 0
-35 -116 0
-38 -92 0
-38 -116 0
-41 -56 0
-41 -59 0
-44 -8 0
-44 -53 0
-47 -32 0
-47 -137 0
-50 -62 0
-50 -122 0
-53 -44 0
-53 -116 0
-56 -41 0
-56 -68 0
-59 -8 0
-59 -41 0
-62 -50 0
-62 -140 0
-65 -32 0
-65 -185 0
-68 -56 0
-68 -101 0
-71 -83 0
-71 -191 0
-74 -98 0
-74 -125 0
-77 -134 0
-77 -206 0
-80 -14 0
-80 -158 0
-83 -23 0
-83 -71 0
-86 -125 0
-86 -164 0
-89 -131 0
-89 -170 0
-92 -14 0
-92 -38 0
-95 -23 0
-95 -164 0
-98 -74 0
-98 -101 0
-101 -2 0
-101 -68 0
-104 -125 0
-104 -134 0
-107 -155 0
-107 -161 0
-110 -152 0
-110 -167 0
-113 -5 0
-113 -131 0
-116 -35 0
-116 -38 0
-119 -182 0
-119 -227 0
-122 -26 0
-122 -50 0
-125 -74 0
-125 -86 0
-128 -191 0
-128 -200 0
-131 -89 0
-131 -113 0
-134 -20 0
-134 -77 0
-137 -44 0
-137 -47 0
-140 -2 0
-140 -62 0
-143 -161 0
-143 -188 0
-146 -5 0
-146 -149 0
-149 -146 0
-149 -197 0
-152 -20 0
-152 -110 0
-155 -5 0
-155 -20 0
-158 -53 0
-158 -80 0
-161 -107 0
-161 -143 0
-164 -26 0
-164 -86 0
-167 -110 0
-167 -188 0
-170 -89 0
-170 -131 0
-173 -17 0
-173 -74 0
-176 -80 0
-176 -140 0
-179 -29 0
-179 -62 0
-182 -8 0
-182 -107 0
-185 -65 0
-185 -86 0
-188 -143 0
-188 -167 0
-191 -71 0
-191 -122 0
-194 -11 0
-197 -23 0
-197 -110 0
-200 -47 0
-200 -104 0
-203 -29 0
-203 -95 0
-206 -77 0
-206 -233 0
-209 -14 0
-209 -212 0
-212 -137 0
-212 -203 0
-215 -17 0
-215 -158 0
-218 -17 0
-218 -35 0
-221 -68 0
-221 -149 0
-224 -59 0
-224 -176 0
-227 -41 0
-227 -98 0
-230 -65 0
-230 -83 0
-233 -11 0
-233 -167 0
-236 -50 0
-236 -71 0
-239 -29 0
-239 -77 0
-3 -33 0
-3 -102 0
-6 -114 0
-6 -147 0
-9 -45 0
-9 -60 0
-12 -195 0
-15 -81 0
-15 -93 0
-18 -174 0
-18 -216 0
-21 -135 0
-21 -153 0
-24 -84 0
-24 -96 0
-27 -36 0
-27 -123 0
-30 -180 0
-30 -204 0
-33 -3 0
-33 -48 0
-36 -27 0
-36 -117 0
-39 -93 0
-39 -117 0
-42 -57 0
-42 -60 0
-45 -9 0
-45 -54 0
-48 -33 0
-48 -138 0
-51 -63 0
-51 -123 0
-54 -45 0
-54 -117 0
-57 -42 0
-57 -69 0
-60 -9 0
-60 -42 0
-63 -51 0
-63 -141 0
-66 -33 0
-66 -186 0
-69 -57 0
-69 -102 0
-72 -84 0
-72 -192 0
-75 -99 0
-75 -126 0
-78 -135 0
-78 -207 0
-81 -15 0
-81 -159 0
-84 -24 0
-84 -72 0
-87 -126 0
-87 -165 0
-90 -132 0
-90 -171 0
-93 -15 0
-93 -39 0
-96 -24 0
-96 -165 0
-99 -75 0
-99 -102 0
-102 -3 0
-102 -69 0
-105 -126 0
-105 -135 0
-108 -156 0
-108 -162 0
-111 -153 0
-111 -168 0
-114 -6 0
-114 -132 0
-117 -36 0
-117 -39 0
-120 -183 0
-120 -228 0
-123 -27 0
-123 -51 0
-126 -75 0
-126 -87 0
-129 -192 0
-129 -201 0
-132 -90 0
-132 -114 0
-135 -21 0
-135 -78 0
-138 -45 0
-138 -48 0
-141 -3 0
-141 -63 0
-144 -162 0
-144 -189 0
-147 -6 0
-147 -150 0
-150 -147 0
-150 -198 0
-153 -21 0
-153 -111 0
-156 -6 0
-156 -21 0
-159 -54 0
-159 -81 0
-162 -108 0
-162 -144 0
-165 -27 0
-165 -87 0
-168 -111 0
-168 -189 0
-171 -90 0
-171 -132 0
-174 -18 0
-174 -75 0
-177 -81 0
-177 -141 0
-180 -30 0
-180 -63 0
-183 -9 0
-183 -108 0
-186 -66 0
-186 -87 0
-189 -144 0
-189 -168 0
-192 -72 0
-192 -123 0
-195 -12 0
-198 -24 0
-198 -111 0
-201 -48 0
-201 -105 0
-204 -30 0
-204 -96 0
-207 -78 0
-207 -234 0
-210 -15 0
-210 -213 0
-213 -138 0
-213 -204 0
-216 -18 0
-216 -159 0
-219 -18 0
-219 -36 0
-222 -69 0
-222 -150 0
-225 -60 0
-225 -177 0
-228 -42 0
-228 -99 0
-231 -66 0
-231 -84 0
-234 -12 0
-234 -168 0
-237 -51 0
-237 -72 0
-240 -30 0
-240 -78 0
